Route #1: 20 29 23 24 25 26 30 21 22 28 27 42 44 43 46 53 45 52 48 47 50 51 70 49 41
Route #2: 54 55 57 56 34 32 31 36 35 33 18
Route #3: 11 1 14
Route #4: 60 61 58 59 39 68 40 38 37 69 67 66 65 63 64 62 19 2 15 17 16 13 12 71 6 10 8 7 9 4 3 5
Cost 251